
******************************************************************************
This program contains Ipopt, a library for large-scale nonlinear optimization.
 Ipopt is released as open source code under the Eclipse Public License (EPL).
         For more information visit http://projects.coin-or.org/Ipopt

This version of Ipopt was compiled from source code available at
    https://github.com/IDAES/Ipopt as part of the Institute for the Design of
    Advanced Energy Systems Process Systems Engineering Framework (IDAES PSE
    Framework) Copyright (c) 2018-2019. See https://github.com/IDAES/idaes-pse.

This version of Ipopt was compiled using HSL, a collection of Fortran codes
    for large-scale scientific computation.  All technical papers, sales and
    publicity material resulting from use of the HSL codes within IPOPT must
    contain the following acknowledgement:
        HSL, a collection of Fortran codes for large-scale scientific
        computation. See http://www.hsl.rl.ac.uk.
******************************************************************************

This is Ipopt version 3.13.2, running with linear solver ma27.

Number of nonzeros in equality constraint Jacobian...:      928
Number of nonzeros in inequality constraint Jacobian.:        0
Number of nonzeros in Lagrangian Hessian.............:      806

Total number of variables............................:      403
                     variables with only lower bounds:      124
                variables with lower and upper bounds:      217
                     variables with only upper bounds:        0
Total number of equality constraints.................:      402
Total number of inequality constraints...............:        0
        inequality constraints with only lower bounds:        0
   inequality constraints with lower and upper bounds:        0
        inequality constraints with only upper bounds:        0

iter    objective    inf_pr   inf_du lg(mu)  ||d||  lg(rg) alpha_du alpha_pr  ls
   0  0.0000000e+00 1.12e+00 8.88e-16  -1.0 0.00e+00    -  0.00e+00 0.00e+00   0
   1  2.5994882e-01 9.23e-01 1.41e+05  -1.0 1.58e+05    -  2.83e-01 1.98e-01h  1
   2  2.8230235e-01 9.13e-01 1.40e+05  -1.0 1.64e+05    -  5.17e-01 1.01e-02h  1
   3  1.1615898e+01 2.67e-01 3.94e+04  -1.0 1.75e+05    -  5.20e-01 9.90e-01h  1
   4  1.4057339e+01 3.25e-02 9.38e+02  -1.0 1.93e+04    -  8.01e-01 9.90e-01h  1
   5  1.4109910e+01 8.36e-04 3.17e+02  -1.0 9.36e+02    -  9.87e-01 9.90e-01h  1
   6  1.4115614e+01 8.70e-06 9.41e+00  -1.0 1.03e+02    -  9.90e-01 9.90e-01h  1
   7  1.4134132e+01 7.86e-06 8.61e+02  -1.7 3.67e+02    -  9.90e-01 9.90e-01H  1
   8  1.4110470e+01 1.24e-04 1.33e+07  -3.8 4.99e+02    -  1.00e+00 9.30e-01f  1
   9  1.4110499e+01 1.38e-07 4.08e+05  -3.8 6.45e-01    -  1.00e+00 1.00e+00h  1
In iteration 9, 31 Slacks too small, adjusting variable bounds
iter    objective    inf_pr   inf_du lg(mu)  ||d||  lg(rg) alpha_du alpha_pr  ls
  10  1.4110498e+01 2.07e-11 2.70e+09  -3.8 1.06e-02    -  1.00e+00 1.00e+00h  1
  11  1.4110498e+01 3.13e-12 1.44e-03  -3.8 1.57e-06    -  1.00e+00 1.00e+00h  1
  12  1.4110348e+01 2.38e-12 1.91e+06  -9.0 2.95e+00    -  1.00e+00 9.99e-01F  1
  13  1.4110348e+01 7.56e-12 2.33e-10  -9.0 1.79e-05    -  1.00e+00 1.00e+00h  1

Number of Iterations....: 13

                                   (scaled)                 (unscaled)
Objective...............:   1.4110347694052489e+01    1.4110347694052489e+01
Dual infeasibility......:   2.3283064365386963e-10    2.3283064365386963e-10
Constraint violation....:   7.5561779055988154e-12    7.5561779055988154e-12
Complementarity.........:   9.0909107017532447e-10    9.0909107017532447e-10
Overall NLP error.......:   8.5978940242508358e-11    9.0909107017532447e-10


Number of objective function evaluations             = 16
Number of objective gradient evaluations             = 14
Number of equality constraint evaluations            = 16
Number of inequality constraint evaluations          = 0
Number of equality constraint Jacobian evaluations   = 14
Number of inequality constraint Jacobian evaluations = 0
Number of Lagrangian Hessian evaluations             = 13
Total CPU secs in IPOPT (w/o function evaluations)   =      0.032
Total CPU secs in NLP function evaluations           =      0.303

EXIT: Optimal Solution Found.
